
c turning on binary mode checking

c parsing input formula with 20 variables and 720 clauses

c finished parsing, read 913 bytes from proof file

c detected empty clause; start verification via backward checking

c 169 of 720 clauses in core                            

c 104 of 112 lemmas in core using 1156 resolution steps

c 0 RAT lemmas in core; 3 redundant literals in core lemmas

s VERIFIED

c verification time: 0.052 seconds
